12 965
525 7 479 7 356 7 107 9 6 11 781 15 614 22
525 7 479 7 356 7 107 9 6 11 781 15 614 22
525 7 482 7 394 7 212 9 29 11 822 15 625 21
525 7 482 7 394 7 212 9 29 11 822 15 625 21
535 8 492 8 398 9 231 10 69 14 899 50
535 8 492 8 398 9 231 10 69 14 899 50
520 7 443 7 262 7 50 12
525 7 479 7 355 7 106 9 925 13
525 7 442 7 285 7 105 9 5 11 812 15 609 22
525 7 482 7 362 7 118 9 855 11 673 18
525 7 477 7 391 7 244 9 79 11 961 15 810 18
525 7 476 7 354 7 155 9 5 11 838 15 650 20 567 28
